language Essence 1.3

letting blksize_delta be
        function(1 --> 8, 2 --> 8, 3 --> 8, 4 --> 8, 5 --> 8, 6 --> 8, 7 --> 9, 8 --> 8, 9 --> 8, 10 --> 8, 11 --> 10,
                 12 --> 8, 13 --> 8, 14 --> 8, 15 --> 8, 16 --> 8, 17 --> 8, 18 --> 8, 19 --> 9, 20 --> 9, 21 --> 8,
                 22 --> 8, 23 --> 8)
letting maxcars be
        function(1 --> 10, 2 --> 10, 3 --> 10, 4 --> 10, 5 --> 10, 6 --> 10, 7 --> 10, 8 --> 10, 9 --> 10, 10 --> 10,
                 11 --> 10, 12 --> 10, 13 --> 10, 14 --> 10, 15 --> 10, 16 --> 10, 17 --> 10, 18 --> 10, 19 --> 10,
                 20 --> 10, 21 --> 10, 22 --> 10, 23 --> 10)
letting n_cars be 224
letting n_classes be 37
letting n_options be 23
letting quantity be
        function(1 --> 6, 2 --> 7, 3 --> 6, 4 --> 6, 5 --> 6, 6 --> 6, 7 --> 7, 8 --> 6, 9 --> 6, 10 --> 6, 11 --> 6,
                 12 --> 6, 13 --> 6, 14 --> 6, 15 --> 6, 16 --> 6, 17 --> 6, 18 --> 6, 19 --> 6, 20 --> 6, 21 --> 6,
                 22 --> 6, 23 --> 6, 24 --> 6, 25 --> 6, 26 --> 6, 27 --> 6, 28 --> 6, 29 --> 6, 30 --> 6, 31 --> 6,
                 32 --> 6, 33 --> 6, 34 --> 6, 35 --> 6, 36 --> 6, 37 --> 6)
letting usage be
        relation((1, 8), (1, 16), (2, 12), (2, 18), (3, 3), (3, 17), (4, 18), (5, 23), (6, 13), (7, 5), (7, 8), (7, 13),
                 (8, 1), (8, 22), (9, 1), (9, 5), (9, 8), (9, 12), (10, 1), (10, 7), (10, 8), (10, 15), (11, 4),
                 (11, 5), (11, 7), (11, 8), (12, 1), (12, 2), (12, 22), (13, 19), (14, 3), (14, 10), (14, 15), (14, 19),
                 (15, 13), (15, 19), (15, 22), (15, 23), (16, 4), (16, 11), (17, 4), (17, 5), (17, 13), (18, 2),
                 (18, 7), (18, 10), (18, 13), (19, 9), (19, 14), (19, 15), (19, 17), (19, 20), (19, 21), (20, 10),
                 (20, 15), (21, 7), (21, 8), (21, 9), (21, 13), (21, 23), (22, 3), (22, 14), (23, 7), (23, 16),
                 (23, 19), (24, 1), (25, 1), (26, 2), (26, 8), (26, 21), (27, 2), (28, 12), (28, 13), (28, 23), (29, 3),
                 (30, 1), (30, 5), (30, 18), (31, 16), (31, 19), (32, 14), (32, 18), (32, 19), (33, 10), (33, 12),
                 (33, 14), (33, 19), (34, 10), (34, 17), (35, 3), (35, 18), (36, 6), (36, 7), (36, 12), (36, 22),
                 (37, 3), (37, 13), (37, 16), (37, 17))
$ Visualisation for usage
$  1  8
$  1 16
$  2 12
$  2 18
$  3  3
$  3 17
$  4 18
$  5 23
$  6 13
$  7  5
$  7  8
$  7 13
$  8  1
$  8 22
$  9  1
$  9  5
$  9  8
$  9 12
$ 10  1
$ 10  7
$ 10  8
$ 10 15
$ 11  4
$ 11  5
$ 11  7
$ 11  8
$ 12  1
$ 12  2
$ 12 22
$ 13 19
$ 14  3
$ 14 10
$ 14 15
$ 14 19
$ 15 13
$ 15 19
$ 15 22
$ 15 23
$ 16  4
$ 16 11
$ 17  4
$ 17  5
$ 17 13
$ 18  2
$ 18  7
$ 18 10
$ 18 13
$ 19  9
$ 19 14
$ 19 15
$ 19 17
$ 19 20
$ 19 21
$ 20 10
$ 20 15
$ 21  7
$ 21  8
$ 21  9
$ 21 13
$ 21 23
$ 22  3
$ 22 14
$ 23  7
$ 23 16
$ 23 19
$ 24  1
$ 25  1
$ 26  2
$ 26  8
$ 26 21
$ 27  2
$ 28 12
$ 28 13
$ 28 23
$ 29  3
$ 30  1
$ 30  5
$ 30 18
$ 31 16
$ 31 19
$ 32 14
$ 32 18
$ 32 19
$ 33 10
$ 33 12
$ 33 14
$ 33 19
$ 34 10
$ 34 17
$ 35  3
$ 35 18
$ 36  6
$ 36  7
$ 36 12
$ 36 22
$ 37  3
$ 37 13
$ 37 16
$ 37 17

